(declare-fun or.cond31_23_49 () (_ BitVec 1))
(declare-fun cmp6.i.i_23_47 () (_ BitVec 1))
(declare-fun tobool.not.i.i.i_23_46 () (_ BitVec 1))
(declare-fun src_reg1.sroa.54.0.copyload_23_40 () (_ BitVec 32))
(declare-fun src_reg1.sroa.50.0.copyload_23_39 () (_ BitVec 32))
(declare-fun and6.i.i.i.i.i_23_44 () (_ BitVec 64))
(declare-fun src_reg1.sroa.13.0.copyload_23_42 () (_ BitVec 64))
(declare-fun src_reg_23_21 () (_ BitVec 64))
(declare-fun src_reg1.sroa.57.0.copyload_23_41 () (_ BitVec 32))
(declare-fun src_reg_23_28 () (_ BitVec 32))
(declare-fun src_reg_23_27 () (_ BitVec 32))
(declare-fun src_reg_23_26 () (_ BitVec 32))
(declare-fun src_reg1.sroa.42.0.copyload_23_38 () (_ BitVec 64))
(declare-fun src_reg_23_25 () (_ BitVec 64))
(declare-fun src_reg_23_35 () (_ BitVec 8))
(declare-fun src_reg_23_34 () (_ BitVec 32))
(declare-fun src_reg_23_33 () (_ BitVec 32))
(declare-fun src_reg_23_32 () (_ BitVec 32))
(declare-fun src_reg_23_31 () (_ BitVec 32))
(declare-fun src_reg_23_30 () (_ BitVec 32))
(declare-fun src_reg_23_29 () (_ BitVec 32))
(declare-fun src_reg_23_24 () (_ BitVec 64))
(declare-fun src_reg_23_23 () (_ BitVec 64))
(declare-fun src_reg_23_22 () (_ BitVec 64))
(declare-fun src_reg_23_20 () (_ BitVec 64))
(declare-fun src_reg_23_19 () (_ BitVec 32))
(declare-fun src_reg_23_18 () (_ BitVec 32))
(declare-fun dst_reg_23_17 () (_ BitVec 8))
(declare-fun dst_reg_23_16 () (_ BitVec 32))
(declare-fun dst_reg_23_15 () (_ BitVec 32))
(declare-fun dst_reg_23_14 () (_ BitVec 32))
(declare-fun dst_reg_23_13 () (_ BitVec 32))
(declare-fun dst_reg_23_12 () (_ BitVec 32))
(declare-fun dst_reg_23_11 () (_ BitVec 32))
(declare-fun dst_reg_23_10 () (_ BitVec 32))
(declare-fun dst_reg_23_9 () (_ BitVec 32))
(declare-fun dst_reg_23_8 () (_ BitVec 32))
(declare-fun dst_reg_23_7 () (_ BitVec 64))
(declare-fun dst_reg_23_6 () (_ BitVec 64))
(declare-fun dst_reg_23_5 () (_ BitVec 64))
(declare-fun dst_reg_23_4 () (_ BitVec 64))
(declare-fun dst_reg_23_3 () (_ BitVec 64))
(declare-fun dst_reg_23_2 () (_ BitVec 64))
(declare-fun dst_reg_23_1 () (_ BitVec 32))
(declare-fun dst_reg_23_0 () (_ BitVec 32))
(declare-fun cmp9.i.i_23_51 () (_ BitVec 1))
(declare-fun src_reg1.sroa.65.0.copyload_23_50 () (_ BitVec 32))
(declare-fun or.cond32_23_113 () (_ BitVec 1))
(declare-fun cmp.i1.i.i.i_23_111 () (_ BitVec 1))
(declare-fun cmp.i.i.i990.i_23_109 () (_ BitVec 1))
(declare-fun cond14.i.i886.i_23_105 () (_ BitVec 32))
(declare-fun cond.i.i880.i_23_100 () (_ BitVec 32))
(declare-fun and.i.i.i.i870.i3033_23_106 () (_ BitVec 32))
(declare-fun conv1.i.i.i_23_107 () (_ BitVec 64))
(declare-fun shr.i.i857.i_23_85 () (_ BitVec 32))
(declare-fun shr9.i.i.i_23_88 () (_ BitVec 32))
(declare-fun or6.i.i884.i_23_103 () (_ BitVec 32))
(declare-fun shr3.i.i_23_79 () (_ BitVec 32))
(declare-fun cmp9.i.i885.i_23_104 () (_ BitVec 1))
(declare-fun and5.i.i883.i_23_102 () (_ BitVec 32))
(declare-fun or.i.i877.i_23_98 () (_ BitVec 32))
(declare-fun shr.i846.i_23_77 () (_ BitVec 32))
(declare-fun cmp.i.i879.i_23_99 () (_ BitVec 1))
(declare-fun and.i.i876.i_23_97 () (_ BitVec 32))
(declare-fun conv10.i.i.i_23_89 () (_ BitVec 64))
(declare-fun conv4.i.i.i_23_84 () (_ BitVec 32))
(declare-fun conv7.i.i858.i_23_87 () (_ BitVec 32))
(declare-fun i18.i852.i_23_81 () (_ BitVec 64))
(declare-fun conv5.i.i.i_23_86 () (_ BitVec 64))
(declare-fun conv3.i.i.i_23_82 () (_ BitVec 32))
(declare-fun i16.i850.i_23_80 () (_ BitVec 64))
(declare-fun i14.i848.i_23_78 () (_ BitVec 32))
(declare-fun i13.i845.i_23_76 () (_ BitVec 32))
(declare-fun or.cond_23_59 () (_ BitVec 1))
(declare-fun land.lhs.true8.i.i_sw.bb27.i.i_23_53 () Bool)
(declare-fun entry_sw.bb27.i.i_23_52 () Bool)
(declare-fun cmp30.i.i_23_57 () (_ BitVec 1))
(declare-fun src_is_const.0.i.i_23_54 () (_ BitVec 1))
(declare-fun conv8.i.i.i_23_115 () (_ BitVec 64))
(declare-fun conv6.i.i.i_23_114 () (_ BitVec 64))
(declare-fun src_reg_23_228 () (_ BitVec 8))
(declare-fun src_reg_23_192 () (_ BitVec 8))
(declare-fun src_reg_23_227 () (_ BitVec 32))
(declare-fun src_reg_23_191 () (_ BitVec 32))
(declare-fun src_reg_23_226 () (_ BitVec 32))
(declare-fun src_reg_23_190 () (_ BitVec 32))
(declare-fun src_reg_23_225 () (_ BitVec 32))
(declare-fun src_reg_23_189 () (_ BitVec 32))
(declare-fun src_reg_23_224 () (_ BitVec 32))
(declare-fun src_reg_23_188 () (_ BitVec 32))
(declare-fun src_reg_23_223 () (_ BitVec 32))
(declare-fun src_reg_23_187 () (_ BitVec 32))
(declare-fun src_reg_23_222 () (_ BitVec 32))
(declare-fun src_reg_23_186 () (_ BitVec 32))
(declare-fun src_reg_23_221 () (_ BitVec 32))
(declare-fun src_reg_23_185 () (_ BitVec 32))
(declare-fun src_reg_23_220 () (_ BitVec 32))
(declare-fun src_reg_23_184 () (_ BitVec 32))
(declare-fun src_reg_23_219 () (_ BitVec 32))
(declare-fun src_reg_23_183 () (_ BitVec 32))
(declare-fun src_reg_23_218 () (_ BitVec 64))
(declare-fun src_reg_23_182 () (_ BitVec 64))
(declare-fun src_reg_23_217 () (_ BitVec 64))
(declare-fun src_reg_23_181 () (_ BitVec 64))
(declare-fun src_reg_23_216 () (_ BitVec 64))
(declare-fun src_reg_23_180 () (_ BitVec 64))
(declare-fun src_reg_23_215 () (_ BitVec 64))
(declare-fun src_reg_23_179 () (_ BitVec 64))
(declare-fun src_reg_23_214 () (_ BitVec 64))
(declare-fun src_reg_23_178 () (_ BitVec 64))
(declare-fun src_reg_23_213 () (_ BitVec 64))
(declare-fun src_reg_23_177 () (_ BitVec 64))
(declare-fun src_reg_23_212 () (_ BitVec 32))
(declare-fun src_reg_23_176 () (_ BitVec 32))
(declare-fun src_reg_23_211 () (_ BitVec 32))
(declare-fun src_reg_23_175 () (_ BitVec 32))
(declare-fun dst_reg_23_210 () (_ BitVec 8))
(declare-fun dst_reg_23_174 () (_ BitVec 8))
(declare-fun dst_reg_23_209 () (_ BitVec 32))
(declare-fun dst_reg_23_173 () (_ BitVec 32))
(declare-fun dst_reg_23_208 () (_ BitVec 32))
(declare-fun dst_reg_23_172 () (_ BitVec 32))
(declare-fun dst_reg_23_207 () (_ BitVec 32))
(declare-fun dst_reg_23_171 () (_ BitVec 32))
(declare-fun dst_reg_23_206 () (_ BitVec 32))
(declare-fun dst_reg_23_170 () (_ BitVec 32))
(declare-fun dst_reg_23_205 () (_ BitVec 32))
(declare-fun dst_reg_23_169 () (_ BitVec 32))
(declare-fun dst_reg_23_204 () (_ BitVec 32))
(declare-fun dst_reg_23_168 () (_ BitVec 32))
(declare-fun dst_reg_23_203 () (_ BitVec 32))
(declare-fun dst_reg_23_167 () (_ BitVec 32))
(declare-fun dst_reg_23_202 () (_ BitVec 32))
(declare-fun dst_reg_23_166 () (_ BitVec 32))
(declare-fun dst_reg_23_201 () (_ BitVec 32))
(declare-fun dst_reg_23_165 () (_ BitVec 32))
(declare-fun dst_reg_23_200 () (_ BitVec 64))
(declare-fun dst_reg_23_164 () (_ BitVec 64))
(declare-fun dst_reg_23_199 () (_ BitVec 64))
(declare-fun dst_reg_23_163 () (_ BitVec 64))
(declare-fun dst_reg_23_198 () (_ BitVec 64))
(declare-fun dst_reg_23_162 () (_ BitVec 64))
(declare-fun dst_reg_23_197 () (_ BitVec 64))
(declare-fun dst_reg_23_161 () (_ BitVec 64))
(declare-fun dst_reg_23_196 () (_ BitVec 64))
(declare-fun dst_reg_23_160 () (_ BitVec 64))
(declare-fun dst_reg_23_195 () (_ BitVec 64))
(declare-fun dst_reg_23_159 () (_ BitVec 64))
(declare-fun dst_reg_23_194 () (_ BitVec 32))
(declare-fun dst_reg_23_158 () (_ BitVec 32))
(declare-fun dst_reg_23_193 () (_ BitVec 32))
(declare-fun dst_reg_23_157 () (_ BitVec 32))
(declare-fun dst_reg_23_134 () (_ BitVec 8))
(declare-fun dst_reg_23_133 () (_ BitVec 32))
(declare-fun dst_reg_23_132 () (_ BitVec 32))
(declare-fun dst_reg_23_131 () (_ BitVec 32))
(declare-fun dst_reg_23_130 () (_ BitVec 32))
(declare-fun dst_reg_23_129 () (_ BitVec 32))
(declare-fun dst_reg_23_128 () (_ BitVec 32))
(declare-fun dst_reg_23_127 () (_ BitVec 32))
(declare-fun dst_reg_23_126 () (_ BitVec 32))
(declare-fun dst_reg_23_125 () (_ BitVec 32))
(declare-fun dst_reg_23_124 () (_ BitVec 64))
(declare-fun dst_reg_23_123 () (_ BitVec 64))
(declare-fun .sink.i.i995.i_23_155 () (_ BitVec 64))
(declare-fun dst_reg_23_121 () (_ BitVec 64))
(declare-fun dst_reg_23_120 () (_ BitVec 64))
(declare-fun dst_reg_23_119 () (_ BitVec 64))
(declare-fun dst_reg_23_118 () (_ BitVec 32))
(declare-fun dst_reg_23_117 () (_ BitVec 32))
(declare-fun src_reg_23_152 () (_ BitVec 8))
(declare-fun src_reg_23_151 () (_ BitVec 32))
(declare-fun src_reg_23_150 () (_ BitVec 32))
(declare-fun src_reg_23_149 () (_ BitVec 32))
(declare-fun src_reg_23_148 () (_ BitVec 32))
(declare-fun src_reg_23_147 () (_ BitVec 32))
(declare-fun src_reg_23_146 () (_ BitVec 32))
(declare-fun src_reg_23_145 () (_ BitVec 32))
(declare-fun src_reg_23_144 () (_ BitVec 32))
(declare-fun src_reg_23_143 () (_ BitVec 32))
(declare-fun src_reg_23_142 () (_ BitVec 64))
(declare-fun src_reg_23_141 () (_ BitVec 64))
(declare-fun src_reg_23_140 () (_ BitVec 64))
(declare-fun src_reg_23_139 () (_ BitVec 64))
(declare-fun src_reg_23_138 () (_ BitVec 64))
(declare-fun src_reg_23_137 () (_ BitVec 64))
(declare-fun src_reg_23_136 () (_ BitVec 32))
(declare-fun src_reg_23_135 () (_ BitVec 32))
(declare-fun if.then.i.i993.i_zext_32_to_64.exit.i_23_154 () Bool)
(declare-fun if.else.i.i994.i_zext_32_to_64.exit.i_23_153 () Bool)
(declare-fun dst_reg_23_122 () (_ BitVec 64))
(assert (let ((a!1 (and (= or.cond_23_59 #b1)
                (or (= or.cond31_23_49 #b1) (= or.cond31_23_49 #b0))))
      (a!4 (and (= or.cond_23_59 #b0)
                (or (= or.cond31_23_49 #b1) (= or.cond31_23_49 #b0))))
      (a!7 (=> (or (= or.cond31_23_49 #b1) (= or.cond31_23_49 #b0))
               (and (=> entry_sw.bb27.i.i_23_52
                        (= src_is_const.0.i.i_23_54 #b0))
                    (=> land.lhs.true8.i.i_sw.bb27.i.i_23_53
                        (= src_is_const.0.i.i_23_54 cmp9.i.i_23_51))
                    (ite (bvult src_reg1.sroa.42.0.copyload_23_38
                                #x0000000000000020)
                         (= cmp30.i.i_23_57 #b1)
                         (= cmp30.i.i_23_57 #b0))
                    (ite (= src_is_const.0.i.i_23_54 #b1)
                         (= or.cond_23_59 cmp30.i.i_23_57)
                         (= or.cond_23_59 #b0))
                    (= entry_sw.bb27.i.i_23_52 (= or.cond31_23_49 #b0))
                    (= land.lhs.true8.i.i_sw.bb27.i.i_23_53
                       (= or.cond31_23_49 #b1)))))
      (a!9 (=> (= or.cond31_23_49 #b1)
               (and (= src_reg_23_29 src_reg1.sroa.65.0.copyload_23_50)
                    (ite (= src_reg1.sroa.57.0.copyload_23_41
                            src_reg1.sroa.65.0.copyload_23_50)
                         (= cmp9.i.i_23_51 #b1)
                         (= cmp9.i.i_23_51 #b0))))))
(let ((a!2 (or (and (= or.cond32_23_113 #b0) a!1)
               (and (= or.cond32_23_113 #b1) a!1)))
      (a!3 (and (=> if.else.i.i994.i_zext_32_to_64.exit.i_23_153
                    (= .sink.i.i995.i_23_155 #x00000000ffffffff))
                (=> if.then.i.i993.i_zext_32_to_64.exit.i_23_154
                    (= .sink.i.i995.i_23_155 conv8.i.i.i_23_115))
                (=> (and (= or.cond32_23_113 #b1) a!1)
                    (and (= #x00000001 src_reg_23_135)
                         (= src_reg_23_19 src_reg_23_136)
                         (= src_reg_23_20 src_reg_23_137)
                         (= src_reg_23_21 src_reg_23_138)
                         (= src_reg_23_22 src_reg_23_139)
                         (= src_reg_23_23 src_reg_23_140)
                         (= src_reg_23_24 src_reg_23_141)
                         (= src_reg_23_25 src_reg_23_142)
                         (= src_reg_23_26 src_reg_23_143)
                         (= src_reg_23_27 src_reg_23_144)
                         (= src_reg_23_28 src_reg_23_145)
                         (= src_reg_23_29 src_reg_23_146)
                         (= src_reg_23_30 src_reg_23_147)
                         (= src_reg_23_31 src_reg_23_148)
                         (= src_reg_23_32 src_reg_23_149)
                         (= src_reg_23_33 src_reg_23_150)
                         (= src_reg_23_34 src_reg_23_151)
                         (= src_reg_23_35 src_reg_23_152)
                         (= #x00000001 dst_reg_23_117)
                         (= dst_reg_23_1 dst_reg_23_118)
                         (= conv5.i.i.i_23_86 dst_reg_23_119)
                         (= conv10.i.i.i_23_89 dst_reg_23_120)
                         (= conv6.i.i.i_23_114 dst_reg_23_121)
                         (= #x7fffffffffffffff dst_reg_23_122)
                         (= conv5.i.i.i_23_86 dst_reg_23_123)
                         (= conv1.i.i.i_23_107 dst_reg_23_124)
                         (= cond.i.i880.i_23_100 dst_reg_23_125)
                         (= cond14.i.i886.i_23_105 dst_reg_23_126)
                         (= shr.i.i857.i_23_85 dst_reg_23_127)
                         (= and.i.i.i.i870.i3033_23_106 dst_reg_23_128)
                         (= dst_reg_23_12 dst_reg_23_129)
                         (= dst_reg_23_13 dst_reg_23_130)
                         (= dst_reg_23_14 dst_reg_23_131)
                         (= dst_reg_23_15 dst_reg_23_132)
                         (= dst_reg_23_16 dst_reg_23_133)
                         (= dst_reg_23_17 dst_reg_23_134)))
                (=> (and (= or.cond32_23_113 #b0) a!1)
                    (and (= #x00000001 src_reg_23_135)
                         (= src_reg_23_19 src_reg_23_136)
                         (= src_reg_23_20 src_reg_23_137)
                         (= src_reg_23_21 src_reg_23_138)
                         (= src_reg_23_22 src_reg_23_139)
                         (= src_reg_23_23 src_reg_23_140)
                         (= src_reg_23_24 src_reg_23_141)
                         (= src_reg_23_25 src_reg_23_142)
                         (= src_reg_23_26 src_reg_23_143)
                         (= src_reg_23_27 src_reg_23_144)
                         (= src_reg_23_28 src_reg_23_145)
                         (= src_reg_23_29 src_reg_23_146)
                         (= src_reg_23_30 src_reg_23_147)
                         (= src_reg_23_31 src_reg_23_148)
                         (= src_reg_23_32 src_reg_23_149)
                         (= src_reg_23_33 src_reg_23_150)
                         (= src_reg_23_34 src_reg_23_151)
                         (= src_reg_23_35 src_reg_23_152)
                         (= #x00000001 dst_reg_23_117)
                         (= dst_reg_23_1 dst_reg_23_118)
                         (= conv5.i.i.i_23_86 dst_reg_23_119)
                         (= conv10.i.i.i_23_89 dst_reg_23_120)
                         (= #x0000000000000000 dst_reg_23_121)
                         (= #x7fffffffffffffff dst_reg_23_122)
                         (= conv5.i.i.i_23_86 dst_reg_23_123)
                         (= conv1.i.i.i_23_107 dst_reg_23_124)
                         (= cond.i.i880.i_23_100 dst_reg_23_125)
                         (= cond14.i.i886.i_23_105 dst_reg_23_126)
                         (= shr.i.i857.i_23_85 dst_reg_23_127)
                         (= and.i.i.i.i870.i3033_23_106 dst_reg_23_128)
                         (= dst_reg_23_12 dst_reg_23_129)
                         (= dst_reg_23_13 dst_reg_23_130)
                         (= dst_reg_23_14 dst_reg_23_131)
                         (= dst_reg_23_15 dst_reg_23_132)
                         (= dst_reg_23_16 dst_reg_23_133)
                         (= dst_reg_23_17 dst_reg_23_134)))
                (= if.else.i.i994.i_zext_32_to_64.exit.i_23_153
                   (and (= or.cond32_23_113 #b0) a!1))
                (= if.then.i.i993.i_zext_32_to_64.exit.i_23_154
                   (and (= or.cond32_23_113 #b1) a!1))))
      (a!6 (=> (and (= or.cond32_23_113 #b1) a!1)
               (and (= conv6.i.i.i_23_114
                       ((_ sign_extend 32) cond.i.i880.i_23_100))
                    (= conv8.i.i.i_23_115
                       ((_ sign_extend 32) cond14.i.i886.i_23_105)))))
      (a!8 (=> a!1
               (and (= dst_reg_23_8 i13.i845.i_23_76)
                    (= shr.i846.i_23_77
                       (bvashr i13.i845.i_23_76
                               src_reg1.sroa.57.0.copyload_23_41))
                    (= dst_reg_23_9 i14.i848.i_23_78)
                    (= shr3.i.i_23_79
                       (bvashr i14.i848.i_23_78
                               src_reg1.sroa.57.0.copyload_23_41))
                    (= dst_reg_23_2 i16.i850.i_23_80)
                    (= dst_reg_23_3 i18.i852.i_23_81)
                    (= conv3.i.i.i_23_82 ((_ extract 31 0) i16.i850.i_23_80))
                    (= conv4.i.i.i_23_84
                       (bvand src_reg1.sroa.57.0.copyload_23_41 #x000000ff))
                    (= shr.i.i857.i_23_85
                       (bvashr conv3.i.i.i_23_82 conv4.i.i.i_23_84))
                    (= conv5.i.i.i_23_86
                       ((_ zero_extend 32) shr.i.i857.i_23_85))
                    (= conv7.i.i858.i_23_87 ((_ extract 31 0) i18.i852.i_23_81))
                    (= shr9.i.i.i_23_88
                       (bvashr conv7.i.i858.i_23_87 conv4.i.i.i_23_84))
                    (= conv10.i.i.i_23_89 ((_ zero_extend 32) shr9.i.i.i_23_88))
                    (= and.i.i876.i_23_97 (bvand shr9.i.i.i_23_88 #x80000000))
                    (= or.i.i877.i_23_98
                       (bvor and.i.i876.i_23_97 shr.i.i857.i_23_85))
                    (ite (bvsgt shr.i846.i_23_77 or.i.i877.i_23_98)
                         (= cmp.i.i879.i_23_99 #b1)
                         (= cmp.i.i879.i_23_99 #b0))
                    (ite (= cmp.i.i879.i_23_99 #b1)
                         (= cond.i.i880.i_23_100 shr.i846.i_23_77)
                         (= cond.i.i880.i_23_100 or.i.i877.i_23_98))
                    (= and5.i.i883.i_23_102 (bvand shr9.i.i.i_23_88 #x7fffffff))
                    (= or6.i.i884.i_23_103
                       (bvor and5.i.i883.i_23_102 shr.i.i857.i_23_85))
                    (ite (bvslt shr3.i.i_23_79 or6.i.i884.i_23_103)
                         (= cmp9.i.i885.i_23_104 #b1)
                         (= cmp9.i.i885.i_23_104 #b0))
                    (ite (= cmp9.i.i885.i_23_104 #b1)
                         (= cond14.i.i886.i_23_105 shr3.i.i_23_79)
                         (= cond14.i.i886.i_23_105 or6.i.i884.i_23_103))
                    (= and.i.i.i.i870.i3033_23_106
                       (bvor shr9.i.i.i_23_88 shr.i.i857.i_23_85))
                    (= conv1.i.i.i_23_107
                       ((_ zero_extend 32) and.i.i.i.i870.i3033_23_106))
                    (ite (bvsgt cond.i.i880.i_23_100 #xffffffff)
                         (= cmp.i.i.i990.i_23_109 #b1)
                         (= cmp.i.i.i990.i_23_109 #b0))
                    (ite (bvsgt cond14.i.i886.i_23_105 #xffffffff)
                         (= cmp.i1.i.i.i_23_111 #b1)
                         (= cmp.i1.i.i.i_23_111 #b0))
                    (ite (= cmp.i.i.i990.i_23_109 #b1)
                         (= or.cond32_23_113 cmp.i1.i.i.i_23_111)
                         (= or.cond32_23_113 #b0))))))
(let ((a!5 (and (=> a!2
                    (and (= src_reg_23_135 src_reg_23_175)
                         (= src_reg_23_136 src_reg_23_176)
                         (= src_reg_23_137 src_reg_23_177)
                         (= src_reg_23_138 src_reg_23_178)
                         (= src_reg_23_139 src_reg_23_179)
                         (= src_reg_23_140 src_reg_23_180)
                         (= src_reg_23_141 src_reg_23_181)
                         (= src_reg_23_142 src_reg_23_182)
                         (= src_reg_23_143 src_reg_23_183)
                         (= src_reg_23_144 src_reg_23_184)
                         (= src_reg_23_145 src_reg_23_185)
                         (= src_reg_23_146 src_reg_23_186)
                         (= src_reg_23_147 src_reg_23_187)
                         (= src_reg_23_148 src_reg_23_188)
                         (= src_reg_23_149 src_reg_23_189)
                         (= src_reg_23_150 src_reg_23_190)
                         (= src_reg_23_151 src_reg_23_191)
                         (= src_reg_23_152 src_reg_23_192)
                         (= dst_reg_23_117 dst_reg_23_157)
                         (= dst_reg_23_118 dst_reg_23_158)
                         (= dst_reg_23_119 dst_reg_23_159)
                         (= dst_reg_23_120 dst_reg_23_160)
                         (= dst_reg_23_121 dst_reg_23_161)
                         (= .sink.i.i995.i_23_155 dst_reg_23_162)
                         (= dst_reg_23_123 dst_reg_23_163)
                         (= dst_reg_23_124 dst_reg_23_164)
                         (= dst_reg_23_125 dst_reg_23_165)
                         (= dst_reg_23_126 dst_reg_23_166)
                         (= dst_reg_23_127 dst_reg_23_167)
                         (= dst_reg_23_128 dst_reg_23_168)
                         (= dst_reg_23_129 dst_reg_23_169)
                         (= dst_reg_23_130 dst_reg_23_170)
                         (= dst_reg_23_131 dst_reg_23_171)
                         (= dst_reg_23_132 dst_reg_23_172)
                         (= dst_reg_23_133 dst_reg_23_173)
                         (= dst_reg_23_134 dst_reg_23_174)))
                (=> a!4
                    (and (= #x00000001 src_reg_23_175)
                         (= src_reg_23_19 src_reg_23_176)
                         (= src_reg_23_20 src_reg_23_177)
                         (= src_reg_23_21 src_reg_23_178)
                         (= src_reg_23_22 src_reg_23_179)
                         (= src_reg_23_23 src_reg_23_180)
                         (= src_reg_23_24 src_reg_23_181)
                         (= src_reg_23_25 src_reg_23_182)
                         (= src_reg_23_26 src_reg_23_183)
                         (= src_reg_23_27 src_reg_23_184)
                         (= src_reg_23_28 src_reg_23_185)
                         (= src_reg_23_29 src_reg_23_186)
                         (= src_reg_23_30 src_reg_23_187)
                         (= src_reg_23_31 src_reg_23_188)
                         (= src_reg_23_32 src_reg_23_189)
                         (= src_reg_23_33 src_reg_23_190)
                         (= src_reg_23_34 src_reg_23_191)
                         (= src_reg_23_35 src_reg_23_192)
                         (= #x00000001 dst_reg_23_157)
                         (= dst_reg_23_1 dst_reg_23_158)
                         (= #x0000000000000000 dst_reg_23_159)
                         (= #xffffffffffffffff dst_reg_23_160)
                         (= #x8000000000000000 dst_reg_23_161)
                         (= #x7fffffffffffffff dst_reg_23_162)
                         (= #x0000000000000000 dst_reg_23_163)
                         (= #xffffffffffffffff dst_reg_23_164)
                         (= #x80000000 dst_reg_23_165)
                         (= #x7fffffff dst_reg_23_166)
                         (= #x00000000 dst_reg_23_167)
                         (= #xffffffff dst_reg_23_168)
                         (= #x00000000 dst_reg_23_169)
                         (= #x00000000 dst_reg_23_170)
                         (= #x00000000 dst_reg_23_171)
                         (= dst_reg_23_15 dst_reg_23_172)
                         (= dst_reg_23_16 dst_reg_23_173)
                         (= #x01 dst_reg_23_174)))
                (= dst_reg_23_157 dst_reg_23_193)
                (= dst_reg_23_158 dst_reg_23_194)
                (= dst_reg_23_159 dst_reg_23_195)
                (= dst_reg_23_160 dst_reg_23_196)
                (= dst_reg_23_161 dst_reg_23_197)
                (= dst_reg_23_162 dst_reg_23_198)
                (= dst_reg_23_163 dst_reg_23_199)
                (= dst_reg_23_164 dst_reg_23_200)
                (= dst_reg_23_165 dst_reg_23_201)
                (= dst_reg_23_166 dst_reg_23_202)
                (= dst_reg_23_167 dst_reg_23_203)
                (= dst_reg_23_168 dst_reg_23_204)
                (= dst_reg_23_169 dst_reg_23_205)
                (= dst_reg_23_170 dst_reg_23_206)
                (= dst_reg_23_171 dst_reg_23_207)
                (= dst_reg_23_172 dst_reg_23_208)
                (= dst_reg_23_173 dst_reg_23_209)
                (= dst_reg_23_174 dst_reg_23_210)
                (= src_reg_23_175 src_reg_23_211)
                (= src_reg_23_176 src_reg_23_212)
                (= src_reg_23_177 src_reg_23_213)
                (= src_reg_23_178 src_reg_23_214)
                (= src_reg_23_179 src_reg_23_215)
                (= src_reg_23_180 src_reg_23_216)
                (= src_reg_23_181 src_reg_23_217)
                (= src_reg_23_182 src_reg_23_218)
                (= src_reg_23_183 src_reg_23_219)
                (= src_reg_23_184 src_reg_23_220)
                (= src_reg_23_185 src_reg_23_221)
                (= src_reg_23_186 src_reg_23_222)
                (= src_reg_23_187 src_reg_23_223)
                (= src_reg_23_188 src_reg_23_224)
                (= src_reg_23_189 src_reg_23_225)
                (= src_reg_23_190 src_reg_23_226)
                (= src_reg_23_191 src_reg_23_227)
                (= src_reg_23_192 src_reg_23_228))))
  (and (=> a!2 a!3)
       (=> (or a!2 a!4) a!5)
       a!6
       a!7
       a!8
       a!9
       (= dst_reg_23_0 dst_reg_23_0)
       (= dst_reg_23_1 dst_reg_23_1)
       (= dst_reg_23_2 dst_reg_23_2)
       (= dst_reg_23_3 dst_reg_23_3)
       (= dst_reg_23_4 dst_reg_23_4)
       (= dst_reg_23_5 dst_reg_23_5)
       (= dst_reg_23_6 dst_reg_23_6)
       (= dst_reg_23_7 dst_reg_23_7)
       (= dst_reg_23_8 dst_reg_23_8)
       (= dst_reg_23_9 dst_reg_23_9)
       (= dst_reg_23_10 dst_reg_23_10)
       (= dst_reg_23_11 dst_reg_23_11)
       (= dst_reg_23_12 dst_reg_23_12)
       (= dst_reg_23_13 dst_reg_23_13)
       (= dst_reg_23_14 dst_reg_23_14)
       (= dst_reg_23_15 dst_reg_23_15)
       (= dst_reg_23_16 dst_reg_23_16)
       (= dst_reg_23_17 dst_reg_23_17)
       (= src_reg_23_18 src_reg_23_18)
       (= src_reg_23_19 src_reg_23_19)
       (= src_reg_23_20 src_reg_23_20)
       (= src_reg_23_21 src_reg_23_21)
       (= src_reg_23_22 src_reg_23_22)
       (= src_reg_23_23 src_reg_23_23)
       (= src_reg_23_24 src_reg_23_24)
       (= src_reg_23_25 src_reg_23_25)
       (= src_reg_23_26 src_reg_23_26)
       (= src_reg_23_27 src_reg_23_27)
       (= src_reg_23_28 src_reg_23_28)
       (= src_reg_23_29 src_reg_23_29)
       (= src_reg_23_30 src_reg_23_30)
       (= src_reg_23_31 src_reg_23_31)
       (= src_reg_23_32 src_reg_23_32)
       (= src_reg_23_33 src_reg_23_33)
       (= src_reg_23_34 src_reg_23_34)
       (= src_reg_23_35 src_reg_23_35)
       (= src_reg_23_25 src_reg1.sroa.42.0.copyload_23_38)
       (= src_reg_23_26 src_reg1.sroa.50.0.copyload_23_39)
       (= src_reg_23_27 src_reg1.sroa.54.0.copyload_23_40)
       (= src_reg_23_28 src_reg1.sroa.57.0.copyload_23_41)
       (= src_reg_23_21 src_reg1.sroa.13.0.copyload_23_42)
       (= and6.i.i.i.i.i_23_44
          (bvand src_reg1.sroa.13.0.copyload_23_42 #x00000000ffffffff))
       (ite (= and6.i.i.i.i.i_23_44 #x0000000000000000)
            (= tobool.not.i.i.i_23_46 #b1)
            (= tobool.not.i.i.i_23_46 #b0))
       (ite (= src_reg1.sroa.50.0.copyload_23_39
               src_reg1.sroa.54.0.copyload_23_40)
            (= cmp6.i.i_23_47 #b1)
            (= cmp6.i.i_23_47 #b0))
       (ite (= tobool.not.i.i.i_23_46 #b1)
            (= or.cond31_23_49 cmp6.i.i_23_47)
            (= or.cond31_23_49 #b0)))))))

;{"dst_reg":["dst_reg_23_0","dst_reg_23_1",[""],["dst_reg_23_2","dst_reg_23_3"],"dst_reg_23_4","dst_reg_23_5","dst_reg_23_6","dst_reg_23_7","dst_reg_23_8","dst_reg_23_9","dst_reg_23_10","dst_reg_23_11","dst_reg_23_12","dst_reg_23_13","","","dst_reg_23_14","dst_reg_23_15","dst_reg_23_16"],"src_reg":["src_reg_23_18","src_reg_23_19",[""],["src_reg_23_20","src_reg_23_21"],"src_reg_23_22","src_reg_23_23","src_reg_23_24","src_reg_23_25","src_reg_23_26","src_reg_23_27","src_reg_23_28","src_reg_23_29","src_reg_23_30","src_reg_23_31","","","src_reg_23_32","src_reg_23_33","src_reg_23_34"]}
;{"dst_reg":["dst_reg_23_193","dst_reg_23_194",[""],["dst_reg_23_195","dst_reg_23_196"],"dst_reg_23_197","dst_reg_23_198","dst_reg_23_199","dst_reg_23_200","dst_reg_23_201","dst_reg_23_202","dst_reg_23_203","dst_reg_23_204","dst_reg_23_205","dst_reg_23_206","","","dst_reg_23_207","dst_reg_23_208","dst_reg_23_209"],"src_reg":["src_reg_23_211","src_reg_23_212",[""],["src_reg_23_213","src_reg_23_214"],"src_reg_23_215","src_reg_23_216","src_reg_23_217","src_reg_23_218","src_reg_23_219","src_reg_23_220","src_reg_23_221","src_reg_23_222","src_reg_23_223","src_reg_23_224","","","src_reg_23_225","src_reg_23_226","src_reg_23_227"]}
